\Problem name: 

Minimize
obj: Y
Subject To
Escolhe_Oponente_0:  X(0,1) + X(0,2) + X(0,3) + X(0,4) + X(0,5) + X(0,6) + X(0,7) + X(0,8) + X(0,9) + X(0,10)
 + X(0,11) + X(0,12) + X(0,13) + X(0,14) + X(0,15) + X(0,16) + X(0,17) + X(0,18) + X(0,19) + X(0,20)
 + X(0,21) + X(0,22) + X(0,23) = 1
Escolhe_Oponente_1:  X(0,1) + X(1,2) + X(1,3) + X(1,4) + X(1,5) + X(1,6) + X(1,7) + X(1,8) + X(1,9) + X(1,10)
 + X(1,11) + X(1,12) + X(1,13) + X(1,14) + X(1,15) + X(1,16) + X(1,17) + X(1,18) + X(1,19) + X(1,20)
 + X(1,21) + X(1,22) + X(1,23) = 1
Escolhe_Oponente_2:  X(0,2) + X(1,2) + X(2,3) + X(2,4) + X(2,5) + X(2,6) + X(2,7) + X(2,8) + X(2,9) + X(2,10)
 + X(2,11) + X(2,12) + X(2,13) + X(2,14) + X(2,15) + X(2,16) + X(2,17) + X(2,18) + X(2,19) + X(2,20)
 + X(2,21) + X(2,22) + X(2,23) = 1
Escolhe_Oponente_3:  X(0,3) + X(1,3) + X(2,3) + X(3,4) + X(3,5) + X(3,6) + X(3,7) + X(3,8) + X(3,9) + X(3,10)
 + X(3,11) + X(3,12) + X(3,13) + X(3,14) + X(3,15) + X(3,16) + X(3,17) + X(3,18) + X(3,19) + X(3,20)
 + X(3,21) + X(3,22) + X(3,23) = 1
Escolhe_Oponente_4:  X(0,4) + X(1,4) + X(2,4) + X(3,4) + X(4,5) + X(4,6) + X(4,7) + X(4,8) + X(4,9) + X(4,10)
 + X(4,11) + X(4,12) + X(4,13) + X(4,14) + X(4,15) + X(4,16) + X(4,17) + X(4,18) + X(4,19) + X(4,20)
 + X(4,21) + X(4,22) + X(4,23) = 1
Escolhe_Oponente_5:  X(0,5) + X(1,5) + X(2,5) + X(3,5) + X(4,5) + X(5,6) + X(5,7) + X(5,8) + X(5,9) + X(5,10)
 + X(5,11) + X(5,12) + X(5,13) + X(5,14) + X(5,15) + X(5,16) + X(5,17) + X(5,18) + X(5,19) + X(5,20)
 + X(5,21) + X(5,22) + X(5,23) = 1
Escolhe_Oponente_6:  X(0,6) + X(1,6) + X(2,6) + X(3,6) + X(4,6) + X(5,6) + X(6,7) + X(6,8) + X(6,9) + X(6,10)
 + X(6,11) + X(6,12) + X(6,13) + X(6,14) + X(6,15) + X(6,16) + X(6,17) + X(6,18) + X(6,19) + X(6,20)
 + X(6,21) + X(6,22) + X(6,23) = 1
Escolhe_Oponente_7:  X(0,7) + X(1,7) + X(2,7) + X(3,7) + X(4,7) + X(5,7) + X(6,7) + X(7,8) + X(7,9) + X(7,10)
 + X(7,11) + X(7,12) + X(7,13) + X(7,14) + X(7,15) + X(7,16) + X(7,17) + X(7,18) + X(7,19) + X(7,20)
 + X(7,21) + X(7,22) + X(7,23) = 1
Escolhe_Oponente_8:  X(0,8) + X(1,8) + X(2,8) + X(3,8) + X(4,8) + X(5,8) + X(6,8) + X(7,8) + X(8,9) + X(8,10)
 + X(8,11) + X(8,12) + X(8,13) + X(8,14) + X(8,15) + X(8,16) + X(8,17) + X(8,18) + X(8,19) + X(8,20)
 + X(8,21) + X(8,22) + X(8,23) = 1
Escolhe_Oponente_9:  X(0,9) + X(1,9) + X(2,9) + X(3,9) + X(4,9) + X(5,9) + X(6,9) + X(7,9) + X(8,9) + X(9,10)
 + X(9,11) + X(9,12) + X(9,13) + X(9,14) + X(9,15) + X(9,16) + X(9,17) + X(9,18) + X(9,19) + X(9,20)
 + X(9,21) + X(9,22) + X(9,23) = 1
Escolhe_Oponente_10:  X(0,10) + X(1,10) + X(2,10) + X(3,10) + X(4,10) + X(5,10) + X(6,10) + X(7,10) + X(8,10) + X(9,10)
 + X(10,11) + X(10,12) + X(10,13) + X(10,14) + X(10,15) + X(10,16) + X(10,17) + X(10,18) + X(10,19) + X(10,20)
 + X(10,21) + X(10,22) + X(10,23) = 1
Escolhe_Oponente_11:  X(0,11) + X(1,11) + X(2,11) + X(3,11) + X(4,11) + X(5,11) + X(6,11) + X(7,11) + X(8,11) + X(9,11)
 + X(10,11) + X(11,12) + X(11,13) + X(11,14) + X(11,15) + X(11,16) + X(11,17) + X(11,18) + X(11,19) + X(11,20)
 + X(11,21) + X(11,22) + X(11,23) = 1
Escolhe_Oponente_12:  X(0,12) + X(1,12) + X(2,12) + X(3,12) + X(4,12) + X(5,12) + X(6,12) + X(7,12) + X(8,12) + X(9,12)
 + X(10,12) + X(11,12) + X(12,13) + X(12,14) + X(12,15) + X(12,16) + X(12,17) + X(12,18) + X(12,19) + X(12,20)
 + X(12,21) + X(12,22) + X(12,23) = 1
Escolhe_Oponente_13:  X(0,13) + X(1,13) + X(2,13) + X(3,13) + X(4,13) + X(5,13) + X(6,13) + X(7,13) + X(8,13) + X(9,13)
 + X(10,13) + X(11,13) + X(12,13) + X(13,14) + X(13,15) + X(13,16) + X(13,17) + X(13,18) + X(13,19) + X(13,20)
 + X(13,21) + X(13,22) + X(13,23) = 1
Escolhe_Oponente_14:  X(0,14) + X(1,14) + X(2,14) + X(3,14) + X(4,14) + X(5,14) + X(6,14) + X(7,14) + X(8,14) + X(9,14)
 + X(10,14) + X(11,14) + X(12,14) + X(13,14) + X(14,15) + X(14,16) + X(14,17) + X(14,18) + X(14,19) + X(14,20)
 + X(14,21) + X(14,22) + X(14,23) = 1
Escolhe_Oponente_15:  X(0,15) + X(1,15) + X(2,15) + X(3,15) + X(4,15) + X(5,15) + X(6,15) + X(7,15) + X(8,15) + X(9,15)
 + X(10,15) + X(11,15) + X(12,15) + X(13,15) + X(14,15) + X(15,16) + X(15,17) + X(15,18) + X(15,19) + X(15,20)
 + X(15,21) + X(15,22) + X(15,23) = 1
Escolhe_Oponente_16:  X(0,16) + X(1,16) + X(2,16) + X(3,16) + X(4,16) + X(5,16) + X(6,16) + X(7,16) + X(8,16) + X(9,16)
 + X(10,16) + X(11,16) + X(12,16) + X(13,16) + X(14,16) + X(15,16) + X(16,17) + X(16,18) + X(16,19) + X(16,20)
 + X(16,21) + X(16,22) + X(16,23) = 1
Escolhe_Oponente_17:  X(0,17) + X(1,17) + X(2,17) + X(3,17) + X(4,17) + X(5,17) + X(6,17) + X(7,17) + X(8,17) + X(9,17)
 + X(10,17) + X(11,17) + X(12,17) + X(13,17) + X(14,17) + X(15,17) + X(16,17) + X(17,18) + X(17,19) + X(17,20)
 + X(17,21) + X(17,22) + X(17,23) = 1
Escolhe_Oponente_18:  X(0,18) + X(1,18) + X(2,18) + X(3,18) + X(4,18) + X(5,18) + X(6,18) + X(7,18) + X(8,18) + X(9,18)
 + X(10,18) + X(11,18) + X(12,18) + X(13,18) + X(14,18) + X(15,18) + X(16,18) + X(17,18) + X(18,19) + X(18,20)
 + X(18,21) + X(18,22) + X(18,23) = 1
Escolhe_Oponente_19:  X(0,19) + X(1,19) + X(2,19) + X(3,19) + X(4,19) + X(5,19) + X(6,19) + X(7,19) + X(8,19) + X(9,19)
 + X(10,19) + X(11,19) + X(12,19) + X(13,19) + X(14,19) + X(15,19) + X(16,19) + X(17,19) + X(18,19) + X(19,20)
 + X(19,21) + X(19,22) + X(19,23) = 1
Escolhe_Oponente_20:  X(0,20) + X(1,20) + X(2,20) + X(3,20) + X(4,20) + X(5,20) + X(6,20) + X(7,20) + X(8,20) + X(9,20)
 + X(10,20) + X(11,20) + X(12,20) + X(13,20) + X(14,20) + X(15,20) + X(16,20) + X(17,20) + X(18,20) + X(19,20)
 + X(20,21) + X(20,22) + X(20,23) = 1
Escolhe_Oponente_21:  X(0,21) + X(1,21) + X(2,21) + X(3,21) + X(4,21) + X(5,21) + X(6,21) + X(7,21) + X(8,21) + X(9,21)
 + X(10,21) + X(11,21) + X(12,21) + X(13,21) + X(14,21) + X(15,21) + X(16,21) + X(17,21) + X(18,21) + X(19,21)
 + X(20,21) + X(21,22) + X(21,23) = 1
Escolhe_Oponente_22:  X(0,22) + X(1,22) + X(2,22) + X(3,22) + X(4,22) + X(5,22) + X(6,22) + X(7,22) + X(8,22) + X(9,22)
 + X(10,22) + X(11,22) + X(12,22) + X(13,22) + X(14,22) + X(15,22) + X(16,22) + X(17,22) + X(18,22) + X(19,22)
 + X(20,22) + X(21,22) + X(22,23) = 1
Escolhe_Oponente_23:  X(0,23) + X(1,23) + X(2,23) + X(3,23) + X(4,23) + X(5,23) + X(6,23) + X(7,23) + X(8,23) + X(9,23)
 + X(10,23) + X(11,23) + X(12,23) + X(13,23) + X(14,23) + X(15,23) + X(16,23) + X(17,23) + X(18,23) + X(19,23)
 + X(20,23) + X(21,23) + X(22,23) = 1
Balanceamento_0_1:  Y -2300 X(0,1) >= 0
Balanceamento_0_2:  Y -300 X(0,2) >= 0
Balanceamento_0_3:  Y -400 X(0,3) >= 0
Balanceamento_0_4:  Y -300 X(0,4) >= 0
Balanceamento_0_5:  Y -800 X(0,5) >= 0
Balanceamento_0_6:  Y -1300 X(0,6) >= 0
Balanceamento_0_7:  Y -1000 X(0,7) >= 0
Balanceamento_0_8:  Y -2900 X(0,8) >= 0
Balanceamento_0_9:  Y -1000 X(0,9) >= 0
Balanceamento_0_10:  Y -900 X(0,10) >= 0
Balanceamento_0_11:  Y -100 X(0,11) >= 0
Balanceamento_0_12:  Y -1750 X(0,12) >= 0
Balanceamento_0_13:  Y -3100 X(0,13) >= 0
Balanceamento_0_15:  Y -1900 X(0,15) >= 0
Balanceamento_0_16:  Y -1000 X(0,16) >= 0
Balanceamento_0_17:  Y -600 X(0,17) >= 0
Balanceamento_0_18:  Y -3800 X(0,18) >= 0
Balanceamento_0_19:  Y -700 X(0,19) >= 0
Balanceamento_0_20:  Y -1900 X(0,20) >= 0
Balanceamento_0_21:  Y -3800 X(0,21) >= 0
Balanceamento_0_22:  Y -3800 X(0,22) >= 0
Balanceamento_0_23:  Y -1000 X(0,23) >= 0
Balanceamento_1_8:  Y -850 X(1,8) >= 0
Balanceamento_1_13:  Y -1150 X(1,13) >= 0
Balanceamento_1_18:  Y -1850 X(1,18) >= 0
Balanceamento_1_21:  Y -1850 X(1,21) >= 0
Balanceamento_1_22:  Y -1850 X(1,22) >= 0
Balanceamento_2_3:  Y -100 X(2,3) >= 0
Balanceamento_2_5:  Y -500 X(2,5) >= 0
Balanceamento_2_6:  Y -1000 X(2,6) >= 0
Balanceamento_2_7:  Y -700 X(2,7) >= 0
Balanceamento_2_8:  Y -2600 X(2,8) >= 0
Balanceamento_2_9:  Y -700 X(2,9) >= 0
Balanceamento_2_10:  Y -600 X(2,10) >= 0
Balanceamento_2_12:  Y -1450 X(2,12) >= 0
Balanceamento_2_13:  Y -2800 X(2,13) >= 0
Balanceamento_2_15:  Y -1600 X(2,15) >= 0
Balanceamento_2_16:  Y -700 X(2,16) >= 0
Balanceamento_2_17:  Y -300 X(2,17) >= 0
Balanceamento_2_18:  Y -3500 X(2,18) >= 0
Balanceamento_2_19:  Y -400 X(2,19) >= 0
Balanceamento_2_20:  Y -1600 X(2,20) >= 0
Balanceamento_2_21:  Y -3500 X(2,21) >= 0
Balanceamento_2_22:  Y -3500 X(2,22) >= 0
Balanceamento_2_23:  Y -700 X(2,23) >= 0
Balanceamento_3_5:  Y -400 X(3,5) >= 0
Balanceamento_3_6:  Y -900 X(3,6) >= 0
Balanceamento_3_7:  Y -600 X(3,7) >= 0
Balanceamento_3_8:  Y -2500 X(3,8) >= 0
Balanceamento_3_9:  Y -600 X(3,9) >= 0
Balanceamento_3_10:  Y -500 X(3,10) >= 0
Balanceamento_3_12:  Y -1350 X(3,12) >= 0
Balanceamento_3_13:  Y -2700 X(3,13) >= 0
Balanceamento_3_15:  Y -1500 X(3,15) >= 0
Balanceamento_3_16:  Y -600 X(3,16) >= 0
Balanceamento_3_17:  Y -200 X(3,17) >= 0
Balanceamento_3_18:  Y -3400 X(3,18) >= 0
Balanceamento_3_19:  Y -300 X(3,19) >= 0
Balanceamento_3_20:  Y -1500 X(3,20) >= 0
Balanceamento_3_21:  Y -3400 X(3,21) >= 0
Balanceamento_3_22:  Y -3400 X(3,22) >= 0
Balanceamento_3_23:  Y -600 X(3,23) >= 0
Balanceamento_4_5:  Y -500 X(4,5) >= 0
Balanceamento_4_6:  Y -1000 X(4,6) >= 0
Balanceamento_4_7:  Y -700 X(4,7) >= 0
Balanceamento_4_8:  Y -2600 X(4,8) >= 0
Balanceamento_4_9:  Y -700 X(4,9) >= 0
Balanceamento_4_10:  Y -600 X(4,10) >= 0
Balanceamento_4_12:  Y -1450 X(4,12) >= 0
Balanceamento_4_13:  Y -2800 X(4,13) >= 0
Balanceamento_4_15:  Y -1600 X(4,15) >= 0
Balanceamento_4_16:  Y -700 X(4,16) >= 0
Balanceamento_4_17:  Y -300 X(4,17) >= 0
Balanceamento_4_18:  Y -3500 X(4,18) >= 0
Balanceamento_4_19:  Y -400 X(4,19) >= 0
Balanceamento_4_20:  Y -1600 X(4,20) >= 0
Balanceamento_4_21:  Y -3500 X(4,21) >= 0
Balanceamento_4_22:  Y -3500 X(4,22) >= 0
Balanceamento_4_23:  Y -700 X(4,23) >= 0
Balanceamento_5_6:  Y -500 X(5,6) >= 0
Balanceamento_5_7:  Y -200 X(5,7) >= 0
Balanceamento_5_8:  Y -2100 X(5,8) >= 0
Balanceamento_5_9:  Y -200 X(5,9) >= 0
Balanceamento_5_10:  Y -100 X(5,10) >= 0
Balanceamento_5_12:  Y -950 X(5,12) >= 0
Balanceamento_5_13:  Y -2300 X(5,13) >= 0
Balanceamento_5_15:  Y -1100 X(5,15) >= 0
Balanceamento_5_16:  Y -200 X(5,16) >= 0
Balanceamento_5_18:  Y -3000 X(5,18) >= 0
Balanceamento_5_20:  Y -1100 X(5,20) >= 0
Balanceamento_5_21:  Y -3000 X(5,21) >= 0
Balanceamento_5_22:  Y -3000 X(5,22) >= 0
Balanceamento_5_23:  Y -200 X(5,23) >= 0
Balanceamento_6_8:  Y -1600 X(6,8) >= 0
Balanceamento_6_12:  Y -450 X(6,12) >= 0
Balanceamento_6_13:  Y -1900 X(6,13) >= 0
Balanceamento_6_15:  Y -600 X(6,15) >= 0
Balanceamento_6_18:  Y -2600 X(6,18) >= 0
Balanceamento_6_20:  Y -600 X(6,20) >= 0
Balanceamento_6_21:  Y -2600 X(6,21) >= 0
Balanceamento_6_22:  Y -2600 X(6,22) >= 0
Balanceamento_7_8:  Y -1900 X(7,8) >= 0
Balanceamento_7_12:  Y -750 X(7,12) >= 0
Balanceamento_7_13:  Y -2100 X(7,13) >= 0
Balanceamento_7_15:  Y -900 X(7,15) >= 0
Balanceamento_7_18:  Y -2800 X(7,18) >= 0
Balanceamento_7_20:  Y -900 X(7,20) >= 0
Balanceamento_7_21:  Y -2800 X(7,21) >= 0
Balanceamento_7_22:  Y -2800 X(7,22) >= 0
Balanceamento_8_13:  Y -200 X(8,13) >= 0
Balanceamento_8_18:  Y -900 X(8,18) >= 0
Balanceamento_8_21:  Y -900 X(8,21) >= 0
Balanceamento_8_22:  Y -900 X(8,22) >= 0
Balanceamento_9_12:  Y -750 X(9,12) >= 0
Balanceamento_9_13:  Y -2100 X(9,13) >= 0
Balanceamento_9_15:  Y -900 X(9,15) >= 0
Balanceamento_9_18:  Y -2800 X(9,18) >= 0
Balanceamento_9_20:  Y -900 X(9,20) >= 0
Balanceamento_9_21:  Y -2800 X(9,21) >= 0
Balanceamento_9_22:  Y -2800 X(9,22) >= 0
Balanceamento_10_12:  Y -850 X(10,12) >= 0
Balanceamento_10_13:  Y -2200 X(10,13) >= 0
Balanceamento_10_15:  Y -1000 X(10,15) >= 0
Balanceamento_10_16:  Y -100 X(10,16) >= 0
Balanceamento_10_18:  Y -2900 X(10,18) >= 0
Balanceamento_10_20:  Y -1000 X(10,20) >= 0
Balanceamento_10_21:  Y -2900 X(10,21) >= 0
Balanceamento_10_22:  Y -2900 X(10,22) >= 0
Balanceamento_10_23:  Y -100 X(10,23) >= 0
Balanceamento_11_12:  Y -1650 X(11,12) >= 0
Balanceamento_11_13:  Y -3000 X(11,13) >= 0
Balanceamento_11_15:  Y -1800 X(11,15) >= 0
Balanceamento_11_16:  Y -900 X(11,16) >= 0
Balanceamento_11_17:  Y -500 X(11,17) >= 0
Balanceamento_11_18:  Y -3700 X(11,18) >= 0
Balanceamento_11_19:  Y -600 X(11,19) >= 0
Balanceamento_11_20:  Y -1800 X(11,20) >= 0
Balanceamento_11_21:  Y -3700 X(11,21) >= 0
Balanceamento_11_22:  Y -3700 X(11,22) >= 0
Balanceamento_11_23:  Y -900 X(11,23) >= 0
Balanceamento_12_13:  Y -1450 X(12,13) >= 0
Balanceamento_12_15:  Y -150 X(12,15) >= 0
Balanceamento_12_18:  Y -2150 X(12,18) >= 0
Balanceamento_12_20:  Y -150 X(12,20) >= 0
Balanceamento_12_21:  Y -2150 X(12,21) >= 0
Balanceamento_12_22:  Y -2150 X(12,22) >= 0
Balanceamento_13_18:  Y -700 X(13,18) >= 0
Balanceamento_13_21:  Y -700 X(13,21) >= 0
Balanceamento_13_22:  Y -700 X(13,22) >= 0
Balanceamento_14_15:  Y -2300 X(14,15) >= 0
Balanceamento_14_16:  Y -1400 X(14,16) >= 0
Balanceamento_14_17:  Y -1000 X(14,17) >= 0
Balanceamento_14_18:  Y -4200 X(14,18) >= 0
Balanceamento_14_19:  Y -1100 X(14,19) >= 0
Balanceamento_14_20:  Y -2300 X(14,20) >= 0
Balanceamento_14_21:  Y -4200 X(14,21) >= 0
Balanceamento_14_22:  Y -4200 X(14,22) >= 0
Balanceamento_14_23:  Y -1400 X(14,23) >= 0
Balanceamento_15_18:  Y -2000 X(15,18) >= 0
Balanceamento_15_21:  Y -2000 X(15,21) >= 0
Balanceamento_15_22:  Y -2000 X(15,22) >= 0
Balanceamento_16_18:  Y -2800 X(16,18) >= 0
Balanceamento_16_20:  Y -900 X(16,20) >= 0
Balanceamento_16_21:  Y -2800 X(16,21) >= 0
Balanceamento_16_22:  Y -2800 X(16,22) >= 0
Balanceamento_17_18:  Y -3200 X(17,18) >= 0
Balanceamento_17_19:  Y -100 X(17,19) >= 0
Balanceamento_17_20:  Y -1300 X(17,20) >= 0
Balanceamento_17_21:  Y -3200 X(17,21) >= 0
Balanceamento_17_22:  Y -3200 X(17,22) >= 0
Balanceamento_17_23:  Y -400 X(17,23) >= 0
Balanceamento_19_20:  Y -1200 X(19,20) >= 0
Balanceamento_19_21:  Y -3100 X(19,21) >= 0
Balanceamento_19_22:  Y -3100 X(19,22) >= 0
Balanceamento_19_23:  Y -300 X(19,23) >= 0
Balanceamento_20_21:  Y -2000 X(20,21) >= 0
Balanceamento_20_22:  Y -2000 X(20,22) >= 0
Bounds
 0 <= Y <= 5000
 0 <= X(0,1) <= 1
 0 <= X(0,2) <= 1
 0 <= X(0,3) <= 1
 0 <= X(0,4) <= 1
 0 <= X(0,5) <= 1
 0 <= X(0,6) <= 1
 0 <= X(0,7) <= 1
 0 <= X(0,8) <= 1
 0 <= X(0,9) <= 1
 0 <= X(0,10) <= 1
 0 <= X(0,11) <= 1
 0 <= X(0,12) <= 1
 0 <= X(0,13) <= 1
 0 <= X(0,14) <= 1
 0 <= X(0,15) <= 1
 0 <= X(0,16) <= 1
 0 <= X(0,17) <= 1
 0 <= X(0,18) <= 1
 0 <= X(0,19) <= 1
 0 <= X(0,20) <= 1
 0 <= X(0,21) <= 1
 0 <= X(0,22) <= 1
 0 <= X(0,23) <= 1
 0 <= X(1,2) <= 1
 0 <= X(1,3) <= 1
 0 <= X(1,4) <= 1
 0 <= X(1,5) <= 1
 0 <= X(1,6) <= 1
 0 <= X(1,7) <= 1
 0 <= X(1,8) <= 1
 0 <= X(1,9) <= 1
 0 <= X(1,10) <= 1
 0 <= X(1,11) <= 1
 0 <= X(1,12) <= 1
 0 <= X(1,13) <= 1
 0 <= X(1,14) <= 1
 0 <= X(1,15) <= 1
 0 <= X(1,16) <= 1
 0 <= X(1,17) <= 1
 0 <= X(1,18) <= 1
 0 <= X(1,19) <= 1
 0 <= X(1,20) <= 1
 0 <= X(1,21) <= 1
 0 <= X(1,22) <= 1
 0 <= X(1,23) <= 1
 0 <= X(2,3) <= 1
 0 <= X(2,4) <= 1
 0 <= X(2,5) <= 1
 0 <= X(2,6) <= 1
 0 <= X(2,7) <= 1
 0 <= X(2,8) <= 1
 0 <= X(2,9) <= 1
 0 <= X(2,10) <= 1
 0 <= X(2,11) <= 1
 0 <= X(2,12) <= 1
 0 <= X(2,13) <= 1
 0 <= X(2,14) <= 1
 0 <= X(2,15) <= 1
 0 <= X(2,16) <= 1
 0 <= X(2,17) <= 1
 0 <= X(2,18) <= 1
 0 <= X(2,19) <= 1
 0 <= X(2,20) <= 1
 0 <= X(2,21) <= 1
 0 <= X(2,22) <= 1
 0 <= X(2,23) <= 1
 0 <= X(3,4) <= 1
 0 <= X(3,5) <= 1
 0 <= X(3,6) <= 1
 0 <= X(3,7) <= 1
 0 <= X(3,8) <= 1
 0 <= X(3,9) <= 1
 0 <= X(3,10) <= 1
 0 <= X(3,11) <= 1
 0 <= X(3,12) <= 1
 0 <= X(3,13) <= 1
 0 <= X(3,14) <= 1
 0 <= X(3,15) <= 1
 0 <= X(3,16) <= 1
 0 <= X(3,17) <= 1
 0 <= X(3,18) <= 1
 0 <= X(3,19) <= 1
 0 <= X(3,20) <= 1
 0 <= X(3,21) <= 1
 0 <= X(3,22) <= 1
 0 <= X(3,23) <= 1
 0 <= X(4,5) <= 1
 0 <= X(4,6) <= 1
 0 <= X(4,7) <= 1
 0 <= X(4,8) <= 1
 0 <= X(4,9) <= 1
 0 <= X(4,10) <= 1
 0 <= X(4,11) <= 1
 0 <= X(4,12) <= 1
 0 <= X(4,13) <= 1
 0 <= X(4,14) <= 1
 0 <= X(4,15) <= 1
 0 <= X(4,16) <= 1
 0 <= X(4,17) <= 1
 0 <= X(4,18) <= 1
 0 <= X(4,19) <= 1
 0 <= X(4,20) <= 1
 0 <= X(4,21) <= 1
 0 <= X(4,22) <= 1
 0 <= X(4,23) <= 1
 0 <= X(5,6) <= 1
 0 <= X(5,7) <= 1
 0 <= X(5,8) <= 1
 0 <= X(5,9) <= 1
 0 <= X(5,10) <= 1
 0 <= X(5,11) <= 1
 0 <= X(5,12) <= 1
 0 <= X(5,13) <= 1
 0 <= X(5,14) <= 1
 0 <= X(5,15) <= 1
 0 <= X(5,16) <= 1
 0 <= X(5,17) <= 1
 0 <= X(5,18) <= 1
 0 <= X(5,19) <= 1
 0 <= X(5,20) <= 1
 0 <= X(5,21) <= 1
 0 <= X(5,22) <= 1
 0 <= X(5,23) <= 1
 0 <= X(6,7) <= 1
 0 <= X(6,8) <= 1
 0 <= X(6,9) <= 1
 0 <= X(6,10) <= 1
 0 <= X(6,11) <= 1
 0 <= X(6,12) <= 1
 0 <= X(6,13) <= 1
 0 <= X(6,14) <= 1
 0 <= X(6,15) <= 1
 0 <= X(6,16) <= 1
 0 <= X(6,17) <= 1
 0 <= X(6,18) <= 1
 0 <= X(6,19) <= 1
 0 <= X(6,20) <= 1
 0 <= X(6,21) <= 1
 0 <= X(6,22) <= 1
 0 <= X(6,23) <= 1
 0 <= X(7,8) <= 1
 0 <= X(7,9) <= 1
 0 <= X(7,10) <= 1
 0 <= X(7,11) <= 1
 0 <= X(7,12) <= 1
 0 <= X(7,13) <= 1
 0 <= X(7,14) <= 1
 0 <= X(7,15) <= 1
 0 <= X(7,16) <= 1
 0 <= X(7,17) <= 1
 0 <= X(7,18) <= 1
 0 <= X(7,19) <= 1
 0 <= X(7,20) <= 1
 0 <= X(7,21) <= 1
 0 <= X(7,22) <= 1
 0 <= X(7,23) <= 1
 0 <= X(8,9) <= 1
 0 <= X(8,10) <= 1
 0 <= X(8,11) <= 1
 0 <= X(8,12) <= 1
 0 <= X(8,13) <= 1
 0 <= X(8,14) <= 1
 0 <= X(8,15) <= 1
 0 <= X(8,16) <= 1
 0 <= X(8,17) <= 1
 0 <= X(8,18) <= 1
 0 <= X(8,19) <= 1
 0 <= X(8,20) <= 1
 0 <= X(8,21) <= 1
 0 <= X(8,22) <= 1
 0 <= X(8,23) <= 1
 0 <= X(9,10) <= 1
 0 <= X(9,11) <= 1
 0 <= X(9,12) <= 1
 0 <= X(9,13) <= 1
 0 <= X(9,14) <= 1
 0 <= X(9,15) <= 1
 0 <= X(9,16) <= 1
 0 <= X(9,17) <= 1
 0 <= X(9,18) <= 1
 0 <= X(9,19) <= 1
 0 <= X(9,20) <= 1
 0 <= X(9,21) <= 1
 0 <= X(9,22) <= 1
 0 <= X(9,23) <= 1
 0 <= X(10,11) <= 1
 0 <= X(10,12) <= 1
 0 <= X(10,13) <= 1
 0 <= X(10,14) <= 1
 0 <= X(10,15) <= 1
 0 <= X(10,16) <= 1
 0 <= X(10,17) <= 1
 0 <= X(10,18) <= 1
 0 <= X(10,19) <= 1
 0 <= X(10,20) <= 1
 0 <= X(10,21) <= 1
 0 <= X(10,22) <= 1
 0 <= X(10,23) <= 1
 0 <= X(11,12) <= 1
 0 <= X(11,13) <= 1
 0 <= X(11,14) <= 1
 0 <= X(11,15) <= 1
 0 <= X(11,16) <= 1
 0 <= X(11,17) <= 1
 0 <= X(11,18) <= 1
 0 <= X(11,19) <= 1
 0 <= X(11,20) <= 1
 0 <= X(11,21) <= 1
 0 <= X(11,22) <= 1
 0 <= X(11,23) <= 1
 0 <= X(12,13) <= 1
 0 <= X(12,14) <= 1
 0 <= X(12,15) <= 1
 0 <= X(12,16) <= 1
 0 <= X(12,17) <= 1
 0 <= X(12,18) <= 1
 0 <= X(12,19) <= 1
 0 <= X(12,20) <= 1
 0 <= X(12,21) <= 1
 0 <= X(12,22) <= 1
 0 <= X(12,23) <= 1
 0 <= X(13,14) <= 1
 0 <= X(13,15) <= 1
 0 <= X(13,16) <= 1
 0 <= X(13,17) <= 1
 0 <= X(13,18) <= 1
 0 <= X(13,19) <= 1
 0 <= X(13,20) <= 1
 0 <= X(13,21) <= 1
 0 <= X(13,22) <= 1
 0 <= X(13,23) <= 1
 0 <= X(14,15) <= 1
 0 <= X(14,16) <= 1
 0 <= X(14,17) <= 1
 0 <= X(14,18) <= 1
 0 <= X(14,19) <= 1
 0 <= X(14,20) <= 1
 0 <= X(14,21) <= 1
 0 <= X(14,22) <= 1
 0 <= X(14,23) <= 1
 0 <= X(15,16) <= 1
 0 <= X(15,17) <= 1
 0 <= X(15,18) <= 1
 0 <= X(15,19) <= 1
 0 <= X(15,20) <= 1
 0 <= X(15,21) <= 1
 0 <= X(15,22) <= 1
 0 <= X(15,23) <= 1
 0 <= X(16,17) <= 1
 0 <= X(16,18) <= 1
 0 <= X(16,19) <= 1
 0 <= X(16,20) <= 1
 0 <= X(16,21) <= 1
 0 <= X(16,22) <= 1
 0 <= X(16,23) <= 1
 0 <= X(17,18) <= 1
 0 <= X(17,19) <= 1
 0 <= X(17,20) <= 1
 0 <= X(17,21) <= 1
 0 <= X(17,22) <= 1
 0 <= X(17,23) <= 1
 0 <= X(18,19) <= 1
 0 <= X(18,20) <= 1
 0 <= X(18,21) <= 1
 0 <= X(18,22) <= 1
 0 <= X(18,23) <= 1
 0 <= X(19,20) <= 1
 0 <= X(19,21) <= 1
 0 <= X(19,22) <= 1
 0 <= X(19,23) <= 1
 0 <= X(20,21) <= 1
 0 <= X(20,22) <= 1
 0 <= X(20,23) <= 1
 0 <= X(21,22) <= 1
 0 <= X(21,23) <= 1
 0 <= X(22,23) <= 1
Integers
X(0,1) X(0,2) X(0,3) X(0,4) X(0,5) X(0,6) X(0,7) X(0,8) X(0,9) X(0,10) 
X(0,11) X(0,12) X(0,13) X(0,14) X(0,15) X(0,16) X(0,17) X(0,18) X(0,19) X(0,20) 
X(0,21) X(0,22) X(0,23) X(1,2) X(1,3) X(1,4) X(1,5) X(1,6) X(1,7) X(1,8) 
X(1,9) X(1,10) X(1,11) X(1,12) X(1,13) X(1,14) X(1,15) X(1,16) X(1,17) X(1,18) 
X(1,19) X(1,20) X(1,21) X(1,22) X(1,23) X(2,3) X(2,4) X(2,5) X(2,6) X(2,7) 
X(2,8) X(2,9) X(2,10) X(2,11) X(2,12) X(2,13) X(2,14) X(2,15) X(2,16) X(2,17) 
X(2,18) X(2,19) X(2,20) X(2,21) X(2,22) X(2,23) X(3,4) X(3,5) X(3,6) X(3,7) 
X(3,8) X(3,9) X(3,10) X(3,11) X(3,12) X(3,13) X(3,14) X(3,15) X(3,16) X(3,17) 
X(3,18) X(3,19) X(3,20) X(3,21) X(3,22) X(3,23) X(4,5) X(4,6) X(4,7) X(4,8) 
X(4,9) X(4,10) X(4,11) X(4,12) X(4,13) X(4,14) X(4,15) X(4,16) X(4,17) X(4,18) 
X(4,19) X(4,20) X(4,21) X(4,22) X(4,23) X(5,6) X(5,7) X(5,8) X(5,9) X(5,10) 
X(5,11) X(5,12) X(5,13) X(5,14) X(5,15) X(5,16) X(5,17) X(5,18) X(5,19) X(5,20) 
X(5,21) X(5,22) X(5,23) X(6,7) X(6,8) X(6,9) X(6,10) X(6,11) X(6,12) X(6,13) 
X(6,14) X(6,15) X(6,16) X(6,17) X(6,18) X(6,19) X(6,20) X(6,21) X(6,22) X(6,23) 
X(7,8) X(7,9) X(7,10) X(7,11) X(7,12) X(7,13) X(7,14) X(7,15) X(7,16) X(7,17) 
X(7,18) X(7,19) X(7,20) X(7,21) X(7,22) X(7,23) X(8,9) X(8,10) X(8,11) X(8,12) 
X(8,13) X(8,14) X(8,15) X(8,16) X(8,17) X(8,18) X(8,19) X(8,20) X(8,21) X(8,22) 
X(8,23) X(9,10) X(9,11) X(9,12) X(9,13) X(9,14) X(9,15) X(9,16) X(9,17) X(9,18) 
X(9,19) X(9,20) X(9,21) X(9,22) X(9,23) X(10,11) X(10,12) X(10,13) X(10,14) X(10,15) 
X(10,16) X(10,17) X(10,18) X(10,19) X(10,20) X(10,21) X(10,22) X(10,23) X(11,12) X(11,13) 
X(11,14) X(11,15) X(11,16) X(11,17) X(11,18) X(11,19) X(11,20) X(11,21) X(11,22) X(11,23) 
X(12,13) X(12,14) X(12,15) X(12,16) X(12,17) X(12,18) X(12,19) X(12,20) X(12,21) X(12,22) 
X(12,23) X(13,14) X(13,15) X(13,16) X(13,17) X(13,18) X(13,19) X(13,20) X(13,21) X(13,22) 
X(13,23) X(14,15) X(14,16) X(14,17) X(14,18) X(14,19) X(14,20) X(14,21) X(14,22) X(14,23) 
X(15,16) X(15,17) X(15,18) X(15,19) X(15,20) X(15,21) X(15,22) X(15,23) X(16,17) X(16,18) 
X(16,19) X(16,20) X(16,21) X(16,22) X(16,23) X(17,18) X(17,19) X(17,20) X(17,21) X(17,22) 
X(17,23) X(18,19) X(18,20) X(18,21) X(18,22) X(18,23) X(19,20) X(19,21) X(19,22) X(19,23) 
X(20,21) X(20,22) X(20,23) X(21,22) X(21,23) X(22,23) 
End
